WARNING: for repeatability, setting FPU to use double precision
============================[ Problem Statistics ]=============================
|                                                                             |
|  Number of variables:           100                                         |
|  Number of clauses:             449                                         |
|  Parse time:                   0.00 s                                       |
|  Eliminated clauses:           0.00 Mb                                      |
|  Simplification time:          0.00 s                                       |
|                                                                             |
============================[ Search Statistics ]==============================
| Conflicts |          ORIGINAL         |          LEARNT          | Progress |
|           |    Vars  Clauses Literals |    Limit  Clauses Lit/Cl |          |
===============================================================================
|       100 |      97      445     1349 |      163      100      7 |  0.010 % |
===============================================================================
restarts              : 3
conflicts             : 239            (75537 /sec)
decisions             : 315            (0.00 % random) (99558 /sec)
propagations          : 5136           (1623262 /sec)
conflict literals     : 1634           (16.33 % deleted)
Memory used           : 13.00 MB
CPU time              : 0.003164 s

SATISFIABLE
